(set-logic ALL)
(set-option :produce-models true)
(declare-sort BoundSet 0)
(declare-sort UnboundSet 0)
(set-option :finite-model-find true)
(declare-fun IsKeyTermOrPhrase (BoundSet) Bool)
(declare-fun IsUsedAmbiguously (BoundSet BoundSet) Bool)
(declare-fun IsFallacyOfEquivocation (BoundSet) Bool)
(declare-fun Occurs (BoundSet) Bool)
(assert (not (=> (exists ((b BoundSet)) (exists ((a BoundSet)) (and (IsKeyTermOrPhrase a) (IsUsedAmbiguously a b)))) (exists ((c BoundSet)) (and (IsFallacyOfEquivocation c) (Occurs c))))))
(check-sat)
(get-model)